NAME 75_2_25_1
ROWS
 N COST
 L LK0
 L LK1
 L FK0
 L FK1
COLUMNS
 X0 COST 3.
 X0 LK0 -1.
 X0 LK1 -1.
 X0 FK0 0.
 X0 FK1 0.
 X1 COST -6.
 X1 LK0 3.
 X1 LK1 4.
 X1 FK0 0.
 X1 FK1 1.
 X2 COST -9.
 X2 LK0 4.
 X2 LK1 1.
 X2 FK0 0.
 X2 FK1 1.
 X3 COST -1.
 X3 LK0 1.
 X3 LK1 -2.
 X3 FK0 1.
 X3 FK1 1.
 X4 COST 2.
 X4 LK0 -4.
 X4 LK1 -5.
 X4 FK0 0.
 X4 FK1 0.
 X5 COST -7.
 X5 LK0 1.
 X5 LK1 -5.
 X5 FK0 1.
 X5 FK1 1.
 X6 COST 1.
 X6 LK0 4.
 X6 LK1 1.
 X6 FK0 0.
 X6 FK1 1.
 X7 COST 4.
 X7 LK0 -3.
 X7 LK1 -4.
 X7 FK0 1.
 X7 FK1 0.
 X8 COST -1.
 X8 LK0 -5.
 X8 LK1 2.
 X8 FK0 1.
 X8 FK1 0.
 X9 COST 2.
 X9 LK0 2.
 X9 LK1 1.
 X9 FK0 0.
 X9 FK1 0.
 X10 COST -10.
 X10 LK0 1.
 X10 LK1 5.
 X10 FK0 1.
 X10 FK1 1.
 X11 COST 2.
 X11 LK0 3.
 X11 LK1 -1.
 X11 FK0 1.
 X11 FK1 1.
 X12 COST -10.
 X12 LK0 4.
 X12 LK1 1.
 X12 FK0 0.
 X12 FK1 1.
 X13 COST -4.
 X13 LK0 0.
 X13 LK1 0.
 X13 FK0 0.
 X13 FK1 0.
 X14 COST 7.
 X14 LK0 -5.
 X14 LK1 3.
 X14 FK0 1.
 X14 FK1 0.
 X15 COST 10.
 X15 LK0 -3.
 X15 LK1 3.
 X15 FK0 0.
 X15 FK1 0.
 X16 COST 9.
 X16 LK0 3.
 X16 LK1 -2.
 X16 FK0 1.
 X16 FK1 1.
 X17 COST 3.
 X17 LK0 -5.
 X17 LK1 -5.
 X17 FK0 1.
 X17 FK1 0.
 X18 COST -1.
 X18 LK0 5.
 X18 LK1 -4.
 X18 FK0 1.
 X18 FK1 1.
 X19 COST 2.
 X19 LK0 1.
 X19 LK1 0.
 X19 FK0 0.
 X19 FK1 1.
 X20 COST -6.
 X20 LK0 -5.
 X20 LK1 -4.
 X20 FK0 0.
 X20 FK1 1.
 X21 COST -4.
 X21 LK0 -3.
 X21 LK1 2.
 X21 FK0 0.
 X21 FK1 1.
 X22 COST 4.
 X22 LK0 -1.
 X22 LK1 -4.
 X22 FK0 0.
 X22 FK1 0.
 X23 COST -4.
 X23 LK0 1.
 X23 LK1 5.
 X23 FK0 1.
 X23 FK1 1.
 X24 COST -10.
 X24 LK0 1.
 X24 LK1 0.
 X24 FK0 0.
 X24 FK1 0.
 X25 COST -10.
 X25 LK0 2.
 X25 LK1 5.
 X25 FK0 0.
 X25 FK1 0.
 X26 COST 4.
 X26 LK0 3.
 X26 LK1 4.
 X26 FK0 1.
 X26 FK1 0.
 X27 COST 6.
 X27 LK0 2.
 X27 LK1 -4.
 X27 FK0 1.
 X27 FK1 0.
 X28 COST 0.
 X28 LK0 3.
 X28 LK1 4.
 X28 FK0 1.
 X28 FK1 1.
 X29 COST 10.
 X29 LK0 0.
 X29 LK1 5.
 X29 FK0 1.
 X29 FK1 0.
 X30 COST 6.
 X30 LK0 5.
 X30 LK1 0.
 X30 FK0 0.
 X30 FK1 1.
 X31 COST -3.
 X31 LK0 2.
 X31 LK1 5.
 X31 FK0 1.
 X31 FK1 0.
 X32 COST -8.
 X32 LK0 1.
 X32 LK1 -3.
 X32 FK0 1.
 X32 FK1 1.
 X33 COST 10.
 X33 LK0 4.
 X33 LK1 2.
 X33 FK0 1.
 X33 FK1 1.
 X34 COST 7.
 X34 LK0 4.
 X34 LK1 -4.
 X34 FK0 0.
 X34 FK1 0.
 X35 COST 8.
 X35 LK0 3.
 X35 LK1 -1.
 X35 FK0 1.
 X35 FK1 0.
 X36 COST -8.
 X36 LK0 0.
 X36 LK1 3.
 X36 FK0 0.
 X36 FK1 0.
 X37 COST -10.
 X37 LK0 5.
 X37 LK1 -4.
 X37 FK0 0.
 X37 FK1 0.
 X38 COST -5.
 X38 LK0 4.
 X38 LK1 -2.
 X38 FK0 0.
 X38 FK1 0.
 X39 COST 9.
 X39 LK0 1.
 X39 LK1 3.
 X39 FK0 0.
 X39 FK1 1.
 X40 COST -9.
 X40 LK0 3.
 X40 LK1 3.
 X40 FK0 0.
 X40 FK1 0.
 X41 COST -6.
 X41 LK0 5.
 X41 LK1 4.
 X41 FK0 1.
 X41 FK1 1.
 X42 COST -4.
 X42 LK0 -5.
 X42 LK1 -2.
 X42 FK0 1.
 X42 FK1 0.
 X43 COST 9.
 X43 LK0 -4.
 X43 LK1 -4.
 X43 FK0 0.
 X43 FK1 1.
 X44 COST -6.
 X44 LK0 -1.
 X44 LK1 3.
 X44 FK0 0.
 X44 FK1 1.
 X45 COST 0.
 X45 LK0 -1.
 X45 LK1 1.
 X45 FK0 0.
 X45 FK1 0.
 X46 COST 3.
 X46 LK0 -1.
 X46 LK1 3.
 X46 FK0 0.
 X46 FK1 0.
 X47 COST 3.
 X47 LK0 1.
 X47 LK1 -5.
 X47 FK0 0.
 X47 FK1 1.
 X48 COST -5.
 X48 LK0 -5.
 X48 LK1 -2.
 X48 FK0 1.
 X48 FK1 1.
 X49 COST -6.
 X49 LK0 -3.
 X49 LK1 -3.
 X49 FK0 0.
 X49 FK1 1.
 X50 COST 9.
 X50 LK0 -4.
 X50 LK1 5.
 X50 FK0 1.
 X50 FK1 1.
 X51 COST -3.
 X51 LK0 3.
 X51 LK1 2.
 X51 FK0 1.
 X51 FK1 1.
 X52 COST 1.
 X52 LK0 2.
 X52 LK1 4.
 X52 FK0 0.
 X52 FK1 0.
 X53 COST 10.
 X53 LK0 3.
 X53 LK1 2.
 X53 FK0 0.
 X53 FK1 0.
 X54 COST 8.
 X54 LK0 5.
 X54 LK1 2.
 X54 FK0 0.
 X54 FK1 0.
 X55 COST -1.
 X55 LK0 -3.
 X55 LK1 -3.
 X55 FK0 0.
 X55 FK1 0.
 X56 COST -10.
 X56 LK0 0.
 X56 LK1 2.
 X56 FK0 0.
 X56 FK1 1.
 X57 COST -1.
 X57 LK0 3.
 X57 LK1 -3.
 X57 FK0 1.
 X57 FK1 0.
 X58 COST -8.
 X58 LK0 -5.
 X58 LK1 3.
 X58 FK0 0.
 X58 FK1 1.
 X59 COST 6.
 X59 LK0 -5.
 X59 LK1 2.
 X59 FK0 0.
 X59 FK1 0.
 X60 COST -10.
 X60 LK0 -5.
 X60 LK1 2.
 X60 FK0 0.
 X60 FK1 1.
 X61 COST -7.
 X61 LK0 5.
 X61 LK1 3.
 X61 FK0 1.
 X61 FK1 1.
 X62 COST 10.
 X62 LK0 3.
 X62 LK1 -2.
 X62 FK0 1.
 X62 FK1 1.
 X63 COST -9.
 X63 LK0 -1.
 X63 LK1 -3.
 X63 FK0 0.
 X63 FK1 1.
 X64 COST 10.
 X64 LK0 5.
 X64 LK1 -2.
 X64 FK0 1.
 X64 FK1 0.
 X65 COST -8.
 X65 LK0 1.
 X65 LK1 3.
 X65 FK0 0.
 X65 FK1 1.
 X66 COST -4.
 X66 LK0 -1.
 X66 LK1 -5.
 X66 FK0 1.
 X66 FK1 1.
 X67 COST 0.
 X67 LK0 -4.
 X67 LK1 -5.
 X67 FK0 0.
 X67 FK1 0.
 X68 COST 1.
 X68 LK0 4.
 X68 LK1 3.
 X68 FK0 0.
 X68 FK1 1.
 X69 COST 4.
 X69 LK0 -4.
 X69 LK1 5.
 X69 FK0 0.
 X69 FK1 1.
 X70 COST 0.
 X70 LK0 -4.
 X70 LK1 2.
 X70 FK0 0.
 X70 FK1 0.
 X71 COST 10.
 X71 LK0 -1.
 X71 LK1 -3.
 X71 FK0 1.
 X71 FK1 0.
 X72 COST 2.
 X72 LK0 2.
 X72 LK1 5.
 X72 FK0 0.
 X72 FK1 1.
 X73 COST 8.
 X73 LK0 0.
 X73 LK1 -5.
 X73 FK0 1.
 X73 FK1 1.
 X74 COST -1.
 X74 LK0 -5.
 X74 LK1 3.
 X74 FK0 0.
 X74 FK1 1.
 Y0 COST 4.
 Y0 LK0 0.
 Y0 LK1 1.
 Y0 FK0 5.
 Y0 FK1 5.
 Y1 COST 1.
 Y1 LK0 0.
 Y1 LK1 1.
 Y1 FK0 2.
 Y1 FK1 4.
 Y2 COST 2.
 Y2 LK0 0.
 Y2 LK1 0.
 Y2 FK0 2.
 Y2 FK1 -3.
 Y3 COST 0.
 Y3 LK0 1.
 Y3 LK1 0.
 Y3 FK0 1.
 Y3 FK1 2.
 Y4 COST 9.
 Y4 LK0 1.
 Y4 LK1 0.
 Y4 FK0 0.
 Y4 FK1 -2.
 Y5 COST 2.
 Y5 LK0 0.
 Y5 LK1 1.
 Y5 FK0 2.
 Y5 FK1 -3.
 Y6 COST 10.
 Y6 LK0 0.
 Y6 LK1 0.
 Y6 FK0 2.
 Y6 FK1 -3.
 Y7 COST 4.
 Y7 LK0 1.
 Y7 LK1 1.
 Y7 FK0 -3.
 Y7 FK1 2.
 Y8 COST 4.
 Y8 LK0 1.
 Y8 LK1 0.
 Y8 FK0 4.
 Y8 FK1 3.
 Y9 COST 10.
 Y9 LK0 0.
 Y9 LK1 1.
 Y9 FK0 -3.
 Y9 FK1 -2.
 Y10 COST 1.
 Y10 LK0 1.
 Y10 LK1 0.
 Y10 FK0 3.
 Y10 FK1 2.
 Y11 COST 3.
 Y11 LK0 0.
 Y11 LK1 0.
 Y11 FK0 -5.
 Y11 FK1 4.
 Y12 COST 6.
 Y12 LK0 0.
 Y12 LK1 0.
 Y12 FK0 0.
 Y12 FK1 2.
 Y13 COST 8.
 Y13 LK0 1.
 Y13 LK1 1.
 Y13 FK0 -4.
 Y13 FK1 3.
 Y14 COST 3.
 Y14 LK0 1.
 Y14 LK1 1.
 Y14 FK0 2.
 Y14 FK1 4.
 Y15 COST 2.
 Y15 LK0 1.
 Y15 LK1 1.
 Y15 FK0 -3.
 Y15 FK1 0.
 Y16 COST 10.
 Y16 LK0 0.
 Y16 LK1 1.
 Y16 FK0 -3.
 Y16 FK1 2.
 Y17 COST 9.
 Y17 LK0 1.
 Y17 LK1 1.
 Y17 FK0 -2.
 Y17 FK1 4.
 Y18 COST 9.
 Y18 LK0 1.
 Y18 LK1 0.
 Y18 FK0 -2.
 Y18 FK1 -3.
 Y19 COST 1.
 Y19 LK0 1.
 Y19 LK1 0.
 Y19 FK0 1.
 Y19 FK1 3.
 Y20 COST 0.
 Y20 LK0 0.
 Y20 LK1 1.
 Y20 FK0 4.
 Y20 FK1 -1.
 Y21 COST 4.
 Y21 LK0 0.
 Y21 LK1 0.
 Y21 FK0 -5.
 Y21 FK1 1.
 Y22 COST 6.
 Y22 LK0 1.
 Y22 LK1 1.
 Y22 FK0 4.
 Y22 FK1 -3.
 Y23 COST 0.
 Y23 LK0 0.
 Y23 LK1 0.
 Y23 FK0 0.
 Y23 FK1 1.
 Y24 COST 2.
 Y24 LK0 1.
 Y24 LK1 0.
 Y24 FK0 -2.
 Y24 FK1 4.
 Y25 COST 3.
 Y25 LK0 0.
 Y25 LK1 1.
 Y25 FK0 4.
 Y25 FK1 5.
 Y26 COST 5.
 Y26 LK0 0.
 Y26 LK1 0.
 Y26 FK0 1.
 Y26 FK1 2.
 Y27 COST 5.
 Y27 LK0 1.
 Y27 LK1 0.
 Y27 FK0 4.
 Y27 FK1 -1.
 Y28 COST 2.
 Y28 LK0 1.
 Y28 LK1 0.
 Y28 FK0 4.
 Y28 FK1 3.
 Y29 COST 6.
 Y29 LK0 0.
 Y29 LK1 1.
 Y29 FK0 1.
 Y29 FK1 -1.
 Y30 COST 8.
 Y30 LK0 0.
 Y30 LK1 0.
 Y30 FK0 -2.
 Y30 FK1 -5.
 Y31 COST 9.
 Y31 LK0 0.
 Y31 LK1 0.
 Y31 FK0 3.
 Y31 FK1 1.
 Y32 COST 3.
 Y32 LK0 1.
 Y32 LK1 1.
 Y32 FK0 -1.
 Y32 FK1 4.
 Y33 COST 0.
 Y33 LK0 0.
 Y33 LK1 1.
 Y33 FK0 -5.
 Y33 FK1 -1.
 Y34 COST 8.
 Y34 LK0 0.
 Y34 LK1 1.
 Y34 FK0 1.
 Y34 FK1 2.
 Y35 COST 8.
 Y35 LK0 0.
 Y35 LK1 1.
 Y35 FK0 5.
 Y35 FK1 0.
 Y36 COST 4.
 Y36 LK0 0.
 Y36 LK1 1.
 Y36 FK0 -2.
 Y36 FK1 -5.
 Y37 COST 1.
 Y37 LK0 0.
 Y37 LK1 1.
 Y37 FK0 3.
 Y37 FK1 2.
 Y38 COST 4.
 Y38 LK0 1.
 Y38 LK1 1.
 Y38 FK0 1.
 Y38 FK1 -5.
 Y39 COST 1.
 Y39 LK0 0.
 Y39 LK1 0.
 Y39 FK0 4.
 Y39 FK1 4.
 Y40 COST 4.
 Y40 LK0 1.
 Y40 LK1 0.
 Y40 FK0 2.
 Y40 FK1 -2.
 Y41 COST 10.
 Y41 LK0 1.
 Y41 LK1 0.
 Y41 FK0 -2.
 Y41 FK1 1.
 Y42 COST 0.
 Y42 LK0 0.
 Y42 LK1 0.
 Y42 FK0 2.
 Y42 FK1 -3.
 Y43 COST 4.
 Y43 LK0 0.
 Y43 LK1 1.
 Y43 FK0 -5.
 Y43 FK1 0.
 Y44 COST 10.
 Y44 LK0 0.
 Y44 LK1 0.
 Y44 FK0 0.
 Y44 FK1 3.
 Y45 COST 3.
 Y45 LK0 0.
 Y45 LK1 1.
 Y45 FK0 4.
 Y45 FK1 2.
 Y46 COST 8.
 Y46 LK0 1.
 Y46 LK1 1.
 Y46 FK0 5.
 Y46 FK1 3.
 Y47 COST 7.
 Y47 LK0 1.
 Y47 LK1 1.
 Y47 FK0 1.
 Y47 FK1 -2.
 Y48 COST 10.
 Y48 LK0 1.
 Y48 LK1 1.
 Y48 FK0 3.
 Y48 FK1 4.
 Y49 COST 4.
 Y49 LK0 0.
 Y49 LK1 1.
 Y49 FK0 -2.
 Y49 FK1 4.
 Y50 COST 0.
 Y50 LK0 0.
 Y50 LK1 0.
 Y50 FK0 0.
 Y50 FK1 0.
 Y51 COST 3.
 Y51 LK0 1.
 Y51 LK1 1.
 Y51 FK0 1.
 Y51 FK1 4.
 Y52 COST 3.
 Y52 LK0 0.
 Y52 LK1 1.
 Y52 FK0 -5.
 Y52 FK1 -2.
 Y53 COST 3.
 Y53 LK0 0.
 Y53 LK1 1.
 Y53 FK0 -2.
 Y53 FK1 3.
 Y54 COST 6.
 Y54 LK0 0.
 Y54 LK1 1.
 Y54 FK0 3.
 Y54 FK1 -1.
 Y55 COST 0.
 Y55 LK0 1.
 Y55 LK1 1.
 Y55 FK0 5.
 Y55 FK1 1.
 Y56 COST 4.
 Y56 LK0 0.
 Y56 LK1 0.
 Y56 FK0 3.
 Y56 FK1 -4.
 Y57 COST 10.
 Y57 LK0 0.
 Y57 LK1 1.
 Y57 FK0 3.
 Y57 FK1 -2.
 Y58 COST 10.
 Y58 LK0 0.
 Y58 LK1 1.
 Y58 FK0 3.
 Y58 FK1 -4.
 Y59 COST 10.
 Y59 LK0 0.
 Y59 LK1 0.
 Y59 FK0 1.
 Y59 FK1 1.
 Y60 COST 3.
 Y60 LK0 0.
 Y60 LK1 1.
 Y60 FK0 -3.
 Y60 FK1 -5.
 Y61 COST 7.
 Y61 LK0 1.
 Y61 LK1 0.
 Y61 FK0 4.
 Y61 FK1 5.
 Y62 COST 7.
 Y62 LK0 0.
 Y62 LK1 0.
 Y62 FK0 -1.
 Y62 FK1 -3.
 Y63 COST 7.
 Y63 LK0 0.
 Y63 LK1 1.
 Y63 FK0 -2.
 Y63 FK1 -3.
 Y64 COST 0.
 Y64 LK0 0.
 Y64 LK1 1.
 Y64 FK0 5.
 Y64 FK1 5.
 Y65 COST 10.
 Y65 LK0 0.
 Y65 LK1 1.
 Y65 FK0 5.
 Y65 FK1 -1.
 Y66 COST 6.
 Y66 LK0 1.
 Y66 LK1 1.
 Y66 FK0 5.
 Y66 FK1 -2.
 Y67 COST 4.
 Y67 LK0 0.
 Y67 LK1 1.
 Y67 FK0 1.
 Y67 FK1 2.
 Y68 COST 5.
 Y68 LK0 1.
 Y68 LK1 0.
 Y68 FK0 -5.
 Y68 FK1 2.
 Y69 COST 1.
 Y69 LK0 1.
 Y69 LK1 1.
 Y69 FK0 -4.
 Y69 FK1 -4.
 Y70 COST 5.
 Y70 LK0 0.
 Y70 LK1 1.
 Y70 FK0 -2.
 Y70 FK1 3.
 Y71 COST 1.
 Y71 LK0 0.
 Y71 LK1 1.
 Y71 FK0 -5.
 Y71 FK1 1.
 Y72 COST 10.
 Y72 LK0 1.
 Y72 LK1 0.
 Y72 FK0 -1.
 Y72 FK1 -5.
 Y73 COST 0.
 Y73 LK0 0.
 Y73 LK1 1.
 Y73 FK0 -4.
 Y73 FK1 4.
 Y74 COST 7.
 Y74 LK0 1.
 Y74 LK1 1.
 Y74 FK0 0.
 Y74 FK1 2.
RHS
 RHS LK0 13.
 RHS LK1 16.
 RHS FK0 16.
 RHS FK1 20.
BOUNDS
 UI BOUND	X0	1.
 LI BOUND	X0	0.
 UI BOUND	X1	1.
 LI BOUND	X1	0.
 UI BOUND	X2	1.
 LI BOUND	X2	0.
 UI BOUND	X3	1.
 LI BOUND	X3	0.
 UI BOUND	X4	1.
 LI BOUND	X4	0.
 UI BOUND	X5	1.
 LI BOUND	X5	0.
 UI BOUND	X6	1.
 LI BOUND	X6	0.
 UI BOUND	X7	1.
 LI BOUND	X7	0.
 UI BOUND	X8	1.
 LI BOUND	X8	0.
 UI BOUND	X9	1.
 LI BOUND	X9	0.
 UI BOUND	X10	1.
 LI BOUND	X10	0.
 UI BOUND	X11	1.
 LI BOUND	X11	0.
 UI BOUND	X12	1.
 LI BOUND	X12	0.
 UI BOUND	X13	1.
 LI BOUND	X13	0.
 UI BOUND	X14	1.
 LI BOUND	X14	0.
 UI BOUND	X15	1.
 LI BOUND	X15	0.
 UI BOUND	X16	1.
 LI BOUND	X16	0.
 UI BOUND	X17	1.
 LI BOUND	X17	0.
 UI BOUND	X18	1.
 LI BOUND	X18	0.
 UI BOUND	X19	1.
 LI BOUND	X19	0.
 UI BOUND	X20	1.
 LI BOUND	X20	0.
 UI BOUND	X21	1.
 LI BOUND	X21	0.
 UI BOUND	X22	1.
 LI BOUND	X22	0.
 UI BOUND	X23	1.
 LI BOUND	X23	0.
 UI BOUND	X24	1.
 LI BOUND	X24	0.
 UI BOUND	X25	1.
 LI BOUND	X25	0.
 UI BOUND	X26	1.
 LI BOUND	X26	0.
 UI BOUND	X27	1.
 LI BOUND	X27	0.
 UI BOUND	X28	1.
 LI BOUND	X28	0.
 UI BOUND	X29	1.
 LI BOUND	X29	0.
 UI BOUND	X30	1.
 LI BOUND	X30	0.
 UI BOUND	X31	1.
 LI BOUND	X31	0.
 UI BOUND	X32	1.
 LI BOUND	X32	0.
 UI BOUND	X33	1.
 LI BOUND	X33	0.
 UI BOUND	X34	1.
 LI BOUND	X34	0.
 UI BOUND	X35	1.
 LI BOUND	X35	0.
 UI BOUND	X36	1.
 LI BOUND	X36	0.
 UI BOUND	X37	1.
 LI BOUND	X37	0.
 UI BOUND	X38	1.
 LI BOUND	X38	0.
 UI BOUND	X39	1.
 LI BOUND	X39	0.
 UI BOUND	X40	1.
 LI BOUND	X40	0.
 UI BOUND	X41	1.
 LI BOUND	X41	0.
 UI BOUND	X42	1.
 LI BOUND	X42	0.
 UI BOUND	X43	1.
 LI BOUND	X43	0.
 UI BOUND	X44	1.
 LI BOUND	X44	0.
 UI BOUND	X45	1.
 LI BOUND	X45	0.
 UI BOUND	X46	1.
 LI BOUND	X46	0.
 UI BOUND	X47	1.
 LI BOUND	X47	0.
 UI BOUND	X48	1.
 LI BOUND	X48	0.
 UI BOUND	X49	1.
 LI BOUND	X49	0.
 UI BOUND	X50	1.
 LI BOUND	X50	0.
 UI BOUND	X51	1.
 LI BOUND	X51	0.
 UI BOUND	X52	1.
 LI BOUND	X52	0.
 UI BOUND	X53	1.
 LI BOUND	X53	0.
 UI BOUND	X54	1.
 LI BOUND	X54	0.
 UI BOUND	X55	1.
 LI BOUND	X55	0.
 UI BOUND	X56	1.
 LI BOUND	X56	0.
 UI BOUND	X57	1.
 LI BOUND	X57	0.
 UI BOUND	X58	1.
 LI BOUND	X58	0.
 UI BOUND	X59	1.
 LI BOUND	X59	0.
 UI BOUND	X60	1.
 LI BOUND	X60	0.
 UI BOUND	X61	1.
 LI BOUND	X61	0.
 UI BOUND	X62	1.
 LI BOUND	X62	0.
 UI BOUND	X63	1.
 LI BOUND	X63	0.
 UI BOUND	X64	1.
 LI BOUND	X64	0.
 UI BOUND	X65	1.
 LI BOUND	X65	0.
 UI BOUND	X66	1.
 LI BOUND	X66	0.
 UI BOUND	X67	1.
 LI BOUND	X67	0.
 UI BOUND	X68	1.
 LI BOUND	X68	0.
 UI BOUND	X69	1.
 LI BOUND	X69	0.
 UI BOUND	X70	1.
 LI BOUND	X70	0.
 UI BOUND	X71	1.
 LI BOUND	X71	0.
 UI BOUND	X72	1.
 LI BOUND	X72	0.
 UI BOUND	X73	1.
 LI BOUND	X73	0.
 UI BOUND	X74	1.
 LI BOUND	X74	0.
 UI BOUND	Y0	1.
 LI BOUND	Y0	0.
 UI BOUND	Y1	1.
 LI BOUND	Y1	0.
 UI BOUND	Y2	1.
 LI BOUND	Y2	0.
 UI BOUND	Y3	1.
 LI BOUND	Y3	0.
 UI BOUND	Y4	1.
 LI BOUND	Y4	0.
 UI BOUND	Y5	1.
 LI BOUND	Y5	0.
 UI BOUND	Y6	1.
 LI BOUND	Y6	0.
 UI BOUND	Y7	1.
 LI BOUND	Y7	0.
 UI BOUND	Y8	1.
 LI BOUND	Y8	0.
 UI BOUND	Y9	1.
 LI BOUND	Y9	0.
 UI BOUND	Y10	1.
 LI BOUND	Y10	0.
 UI BOUND	Y11	1.
 LI BOUND	Y11	0.
 UI BOUND	Y12	1.
 LI BOUND	Y12	0.
 UI BOUND	Y13	1.
 LI BOUND	Y13	0.
 UI BOUND	Y14	1.
 LI BOUND	Y14	0.
 UI BOUND	Y15	1.
 LI BOUND	Y15	0.
 UI BOUND	Y16	1.
 LI BOUND	Y16	0.
 UI BOUND	Y17	1.
 LI BOUND	Y17	0.
 UI BOUND	Y18	1.
 LI BOUND	Y18	0.
 UI BOUND	Y19	1.
 LI BOUND	Y19	0.
 UI BOUND	Y20	1.
 LI BOUND	Y20	0.
 UI BOUND	Y21	1.
 LI BOUND	Y21	0.
 UI BOUND	Y22	1.
 LI BOUND	Y22	0.
 UI BOUND	Y23	1.
 LI BOUND	Y23	0.
 UI BOUND	Y24	1.
 LI BOUND	Y24	0.
 UI BOUND	Y25	1.
 LI BOUND	Y25	0.
 UI BOUND	Y26	1.
 LI BOUND	Y26	0.
 UI BOUND	Y27	1.
 LI BOUND	Y27	0.
 UI BOUND	Y28	1.
 LI BOUND	Y28	0.
 UI BOUND	Y29	1.
 LI BOUND	Y29	0.
 UI BOUND	Y30	1.
 LI BOUND	Y30	0.
 UI BOUND	Y31	1.
 LI BOUND	Y31	0.
 UI BOUND	Y32	1.
 LI BOUND	Y32	0.
 UI BOUND	Y33	1.
 LI BOUND	Y33	0.
 UI BOUND	Y34	1.
 LI BOUND	Y34	0.
 UI BOUND	Y35	1.
 LI BOUND	Y35	0.
 UI BOUND	Y36	1.
 LI BOUND	Y36	0.
 UI BOUND	Y37	1.
 LI BOUND	Y37	0.
 UI BOUND	Y38	1.
 LI BOUND	Y38	0.
 UI BOUND	Y39	1.
 LI BOUND	Y39	0.
 UI BOUND	Y40	1.
 LI BOUND	Y40	0.
 UI BOUND	Y41	1.
 LI BOUND	Y41	0.
 UI BOUND	Y42	1.
 LI BOUND	Y42	0.
 UI BOUND	Y43	1.
 LI BOUND	Y43	0.
 UI BOUND	Y44	1.
 LI BOUND	Y44	0.
 UI BOUND	Y45	1.
 LI BOUND	Y45	0.
 UI BOUND	Y46	1.
 LI BOUND	Y46	0.
 UI BOUND	Y47	1.
 LI BOUND	Y47	0.
 UI BOUND	Y48	1.
 LI BOUND	Y48	0.
 UI BOUND	Y49	1.
 LI BOUND	Y49	0.
 UI BOUND	Y50	1.
 LI BOUND	Y50	0.
 UI BOUND	Y51	1.
 LI BOUND	Y51	0.
 UI BOUND	Y52	1.
 LI BOUND	Y52	0.
 UI BOUND	Y53	1.
 LI BOUND	Y53	0.
 UI BOUND	Y54	1.
 LI BOUND	Y54	0.
 UI BOUND	Y55	1.
 LI BOUND	Y55	0.
 UI BOUND	Y56	1.
 LI BOUND	Y56	0.
 UI BOUND	Y57	1.
 LI BOUND	Y57	0.
 UI BOUND	Y58	1.
 LI BOUND	Y58	0.
 UI BOUND	Y59	1.
 LI BOUND	Y59	0.
 UI BOUND	Y60	1.
 LI BOUND	Y60	0.
 UI BOUND	Y61	1.
 LI BOUND	Y61	0.
 UI BOUND	Y62	1.
 LI BOUND	Y62	0.
 UI BOUND	Y63	1.
 LI BOUND	Y63	0.
 UI BOUND	Y64	1.
 LI BOUND	Y64	0.
 UI BOUND	Y65	1.
 LI BOUND	Y65	0.
 UI BOUND	Y66	1.
 LI BOUND	Y66	0.
 UI BOUND	Y67	1.
 LI BOUND	Y67	0.
 UI BOUND	Y68	1.
 LI BOUND	Y68	0.
 UI BOUND	Y69	1.
 LI BOUND	Y69	0.
 UI BOUND	Y70	1.
 LI BOUND	Y70	0.
 UI BOUND	Y71	1.
 LI BOUND	Y71	0.
 UI BOUND	Y72	1.
 LI BOUND	Y72	0.
 UI BOUND	Y73	1.
 LI BOUND	Y73	0.
 UI BOUND	Y74	1.
 LI BOUND	Y74	0.
ENDATA
